
Gurobi 9.1.2 (linux64) logging started Wed Nov 24 10:32:57 2021

Changed value of parameter LogFile to lemke_square_v-(5, 4).log-s20-l10.log
   Prev:   Default: 
Changed value of parameter Threads to 32
   Prev: 0  Min: 0  Max: 1024  Default: 0
Changed value of parameter TimeLimit to 3600.0
   Prev: inf  Min: 0.0  Max: inf  Default: inf
Changed value of parameter MIPGap to 0.4
   Prev: 0.0001  Min: 0.0  Max: inf  Default: 0.0001
Warning: variable name "X[(7, 4),(7, 3)]" has a space
Warning: constraint name "flow-constr-t0-v(3, 0)" has a space
Warning: to let Gurobi read it back, use rlp format
Gurobi Optimizer version 9.1.2 build v9.1.2rc0 (linux64)
Thread count: 16 physical cores, 32 logical processors, using up to 32 threads
Optimize a model with 6033 rows, 5440 columns and 20720 nonzeros
Model fingerprint: 0x75cd6776
Variable types: 0 continuous, 5440 integer (4800 binary)
Coefficient statistics:
  Matrix range     [1e+00, 1e+03]
  Objective range  [1e-01, 1e-01]
  Bounds range     [1e+00, 5e+02]
  RHS range        [1e+00, 1e+03]
Presolve removed 477 rows and 500 columns
Presolve time: 0.04s
Presolved: 5556 rows, 4940 columns, 18470 nonzeros
Variable types: 0 continuous, 4940 integer (4300 binary)

Root relaxation: objective 6.400000e+01, 128 iterations, 0.00 seconds

    Nodes    |    Current Node    |     Objective Bounds      |     Work
 Expl Unexpl |  Obj  Depth IntInf | Incumbent    BestBd   Gap | It/Node Time

     0     0   64.00000    0   46          -   64.00000      -     -    0s
     0     0   64.00000    0   67          -   64.00000      -     -    0s
     0     0   64.00000    0   71          -   64.00000      -     -    0s
     0     0   64.00000    0   46          -   64.00000      -     -    0s
     0     0   64.00000    0   46          -   64.00000      -     -    0s
     0     0   64.00000    0   40          -   64.00000      -     -    0s
     0     0   64.00000    0   44          -   64.00000      -     -    0s
     0     0   64.00000    0   62          -   64.00000      -     -    0s
H    0     0                    3184.4000000   64.00000  98.0%     -    0s
     0     0   64.00000    0   38 3184.40000   64.00000  98.0%     -    0s
H    0     0                     136.3000000   64.00000  53.0%     -    0s
H    0     0                     134.3000000   64.00000  52.3%     -    0s
H    0     2                     133.8000000   64.00000  52.2%     -    1s
     0     2   64.00000    0   36  133.80000   64.00000  52.2%     -    1s
H   32    62                     127.5000000   64.00000  49.8%  42.5    2s
H   33    62                     116.9000000   64.00000  45.3%  41.8    2s
H   34    62                     116.4000000   64.00000  45.0%  41.4    2s
H   36    62                     108.7000000   64.00000  41.1%  40.2    2s
H   95   126                     106.2000000   64.00000  39.7%  30.4    3s
H   99   126                     101.1000000   64.00000  36.7%  29.2    3s
H  103   126                      99.2000000   64.00000  35.5%  28.1    3s
H  109   126                      95.2000000   64.00000  32.8%  26.7    3s

Cutting planes:
  Gomory: 2
  Cover: 101
  Implied bound: 116
  Clique: 20
  MIR: 40
  Flow cover: 19
  RLT: 17
  Relax-and-lift: 48

Explored 127 nodes (6129 simplex iterations) in 3.92 seconds
Thread count was 32 (of 32 available processors)

Solution count 10: 95.2 99.2 101.1 ... 134.3

Optimal solution found (tolerance 4.00e-01)
Best objective 9.520000000000e+01, best bound 6.400000000000e+01, gap 32.7731%

Gurobi 9.1.2 (linux64) logging started Wed Nov 24 12:42:45 2021

Changed value of parameter LogFile to lemke_square_v-(5, 4).log-s20-l10.log
   Prev:   Default: 
Changed value of parameter Threads to 32
   Prev: 0  Min: 0  Max: 1024  Default: 0
Changed value of parameter TimeLimit to 3600.0
   Prev: inf  Min: 0.0  Max: inf  Default: inf
Changed value of parameter MIPGap to 0.3
   Prev: 0.0001  Min: 0.0  Max: inf  Default: 0.0001
Warning: variable name "X[(7, 4),(7, 3)]" has a space
Warning: constraint name "flow-constr-t0-v(3, 0)" has a space
Warning: to let Gurobi read it back, use rlp format
Gurobi Optimizer version 9.1.2 build v9.1.2rc0 (linux64)
Thread count: 16 physical cores, 32 logical processors, using up to 32 threads
Optimize a model with 6033 rows, 5440 columns and 20720 nonzeros
Model fingerprint: 0x75cd6776
Variable types: 0 continuous, 5440 integer (4800 binary)
Coefficient statistics:
  Matrix range     [1e+00, 1e+03]
  Objective range  [1e-01, 1e-01]
  Bounds range     [1e+00, 5e+02]
  RHS range        [1e+00, 1e+03]
Presolve removed 477 rows and 500 columns
Presolve time: 0.04s
Presolved: 5556 rows, 4940 columns, 18470 nonzeros
Variable types: 0 continuous, 4940 integer (4300 binary)

Root relaxation: objective 6.400000e+01, 128 iterations, 0.00 seconds

    Nodes    |    Current Node    |     Objective Bounds      |     Work
 Expl Unexpl |  Obj  Depth IntInf | Incumbent    BestBd   Gap | It/Node Time

     0     0   64.00000    0   46          -   64.00000      -     -    0s
     0     0   64.00000    0   67          -   64.00000      -     -    0s
     0     0   64.00000    0   71          -   64.00000      -     -    0s
     0     0   64.00000    0   46          -   64.00000      -     -    0s
     0     0   64.00000    0   46          -   64.00000      -     -    0s
     0     0   64.00000    0   40          -   64.00000      -     -    0s
     0     0   64.00000    0   44          -   64.00000      -     -    0s
     0     0   64.00000    0   62          -   64.00000      -     -    0s
H    0     0                    3184.4000000   64.00000  98.0%     -    0s
     0     0   64.00000    0   38 3184.40000   64.00000  98.0%     -    0s
H    0     0                     136.3000000   64.00000  53.0%     -    0s
H    0     0                     134.3000000   64.00000  52.3%     -    0s
H    0     2                     133.8000000   64.00000  52.2%     -    0s
     0     2   64.00000    0   36  133.80000   64.00000  52.2%     -    0s
H   32    62                     127.5000000   64.00000  49.8%  42.5    2s
H   33    62                     116.9000000   64.00000  45.3%  41.8    2s
H   34    62                     116.4000000   64.00000  45.0%  41.4    2s
H   36    62                     108.7000000   64.00000  41.1%  40.2    2s
H   95   126                     106.2000000   64.00000  39.7%  30.4    3s
H   99   126                     101.1000000   64.00000  36.7%  29.2    3s
H  103   126                      99.2000000   64.00000  35.5%  28.1    3s
H  109   126                      95.2000000   64.00000  32.8%  26.7    3s
  4565  6177   87.30000  102   56   95.20000   64.00000  32.8%  12.4    5s
H 8857  7940                      94.1000000   64.00000  32.0%   9.3    5s
H 8860  7538                      93.7000000   64.00000  31.7%   9.3    6s
H 8861  7162                      92.2000000   64.00000  30.6%   9.3    6s
H 8861  6804                      92.0000000   64.00000  30.4%   9.3    6s
H 8862  6464                      91.9000000   64.00000  30.4%   9.3    6s
H 8864  6142                      90.3000000   64.00000  29.1%   9.3    6s

Cutting planes:
  Gomory: 20
  Cover: 56
  Implied bound: 65
  Projected implied bound: 5
  Clique: 14
  MIR: 45
  Flow cover: 45
  GUB cover: 1
  RLT: 22
  Relax-and-lift: 26

Explored 8864 nodes (88435 simplex iterations) in 6.98 seconds
Thread count was 32 (of 32 available processors)

Solution count 10: 90.3 91.9 92 ... 106.2

Optimal solution found (tolerance 3.00e-01)
Best objective 9.030000000000e+01, best bound 6.400000000000e+01, gap 29.1251%
